(set-option :produce-models true)
(set-logic QF_UF)
(declare-fun p66() Bool)
(declare-fun p45() Bool)
(declare-fun p20() Bool)
(declare-fun p51() Bool)
(declare-fun p26() Bool)
(declare-fun p33() Bool)
(declare-fun p39() Bool)
(declare-fun p42() Bool)
(declare-fun p24() Bool)
(declare-fun p55() Bool)
(declare-fun p21() Bool)
(declare-fun p18() Bool)
(declare-fun p72() Bool)
(declare-fun p14() Bool)
(declare-fun p3() Bool)
(declare-fun p63() Bool)
(declare-fun p10() Bool)
(declare-fun p67() Bool)
(declare-fun p44() Bool)
(declare-fun p74() Bool)
(declare-fun p38() Bool)
(declare-fun p47() Bool)
(declare-fun p46() Bool)
(declare-fun p32() Bool)
(declare-fun p19() Bool)
(declare-fun p61() Bool)
(declare-fun p31() Bool)
(declare-fun p40() Bool)
(declare-fun p29() Bool)
(declare-fun p16() Bool)
(declare-fun p62() Bool)
(declare-fun p57() Bool)
(declare-fun p30() Bool)
(declare-fun p56() Bool)
(declare-fun p60() Bool)
(declare-fun p58() Bool)
(declare-fun p79() Bool)
(declare-fun p25() Bool)
(declare-fun p8() Bool)
(declare-fun p48() Bool)
(declare-fun p5() Bool)
(declare-fun p77() Bool)
(declare-fun p59() Bool)
(declare-fun p54() Bool)
(declare-fun p22() Bool)
(declare-fun p36() Bool)
(declare-fun p15() Bool)
(declare-fun p65() Bool)
(declare-fun p64() Bool)
(declare-fun p76() Bool)
(declare-fun p23() Bool)
(declare-fun p34() Bool)
(declare-fun p35() Bool)
(declare-fun p12() Bool)
(declare-fun p2() Bool)
(declare-fun p17() Bool)
(declare-fun p6() Bool)
(declare-fun p69() Bool)
(declare-fun p4() Bool)
(declare-fun p27() Bool)
(declare-fun p78() Bool)
(declare-fun p7() Bool)
(declare-fun p1() Bool)
(declare-fun p53() Bool)
(declare-fun p9() Bool)
(declare-fun p0() Bool)
(declare-fun p68() Bool)
(declare-fun p28() Bool)
(declare-fun p50() Bool)
(declare-fun p11() Bool)
(declare-fun p52() Bool)
(declare-fun p73() Bool)
(declare-fun p43() Bool)
(declare-fun p75() Bool)
(declare-fun p71() Bool)
(declare-fun p37() Bool)
(declare-fun p13() Bool)
(declare-fun p70() Bool)
(declare-fun p41() Bool)
(declare-fun p49() Bool)
(assert
(and (or p66 p45 p20) (or p51 (not p26) (not p33)) (or (not p39) p42 p45) (or p24 p55 (not p21)) (or (not p18) p72 p14) (or p3 p63 (not p10)) (or (not p67) p44 (not p67)) (or p74 p38 (not p63)) (or p47 p46 p32) (or (not p19) (not p66) p61) (or p31 (not p40) p29) (or p16 p62 p57) (or (not p30) p56 p42) (or p57 (not p45) (not p60)) (or (not p26) p38 (not p3)) (or (not p38) p38 p58) (or (not p31) p79 (not p25)) (or p8 p19 p48) (or (not p72) p18 (not p5)) (or (not p77) (not p59) (not p26)) (or p54 (not p22) (not p36)) (or p55 (not p66) (not p15)) (or (not p65) (not p67) p22) (or p64 (not p22) (not p36)) (or p62 p77 (not p22)) (or p72 p26 p36) (or p76 p18 (not p29)) (or (not p76) p18 p16) (or (not p23) (not p40) p34) (or (not p10) p21 p35) (or (not p12) p63 (not p47)) (or p2 (not p17) (not p36)) (or p47 p6 (not p45)) (or p54 (not p76) (not p63)) (or (not p69) (not p21) (not p15)) (or p18 (not p3) p77) (or p4 p21 p46) (or p27 (not p10) p18) (or (not p63) p54 (not p30)) (or p78 p58 (not p38)) (or p67 p57 p57) (or p14 (not p24) p16) (or p64 p42 p7) (or (not p1) (not p51) (not p76)) (or p65 (not p53) (not p17)) (or p9 p78 p0) (or (not p0) (not p9) (not p59)) (or p68 (not p29) p68) (or (not p15) (not p57) p36) (or (not p54) p57 (not p32)) (or (not p28) p48 (not p2)) (or p68 p23 p67) (or p2 p35 (not p56)) (or p17 p54 p12) (or (not p53) p25 (not p74)) (or p74 p33 p2) (or p72 (not p58) p76) (or (not p31) p50 p35) (or (not p11) p59 (not p17)) (or p63 (not p74) p51) (or p64 (not p12) p34) (or p55 p52 (not p14)) (or p58 (not p73) p54) (or p34 (not p25) (not p58)) (or (not p57) p65 p0) (or p35 p65 (not p53)) (or (not p78) p63 (not p54)) (or p0 p67 p19) (or p67 (not p32) (not p14)) (or (not p43) p67 p24) (or p27 p15 p74) (or (not p24) (not p63) p69) (or p75 p6 (not p50)) (or p54 p30 p30) (or p12 (not p50) p36) (or p65 (not p1) (not p9)) (or p55 p15 (not p16)) (or (not p69) (not p71) (not p37)) (or (not p52) p34 p33) (or (not p2) (not p57) p18) (or p42 (not p36) p38) (or p6 (not p74) p0) (or (not p42) (not p28) (not p66)) (or p37 p62 (not p18)) (or p26 (not p11) (not p44)) (or p25 (not p31) (not p30)) (or (not p7) (not p12) p60) (or p31 p52 p77) (or p37 p6 p16) (or p75 (not p65) (not p4)) (or p35 (not p9) (not p7)) (or p39 p32 p69) (or p59 (not p43) p72) (or (not p68) p67 (not p0)) (or p37 p7 (not p75)) (or p57 (not p28) (not p10)) (or (not p44) (not p42) p73) (or (not p39) (not p72) (not p33)) (or (not p16) p52 p78) (or p63 (not p35) (not p52)) (or p43 (not p5) p76) (or (not p78) (not p6) (not p40)) (or p33 (not p3) p65) (or p20 (not p67) p40) (or (not p51) p64 (not p25)) (or p71 p64 p53) (or (not p63) p60 (not p17)) (or p77 p33 (not p76)) (or p13 p65 (not p36)) (or (not p7) p22 (not p24)) (or (not p35) p61 (not p3)) (or (not p77) p37 (not p63)) (or p60 p75 p60) (or p65 p17 (not p74)) (or p46 p50 p0) (or p76 (not p60) (not p17)) (or p8 (not p76) (not p11)) (or p27 p56 (not p48)) (or p2 (not p39) p56) (or p76 (not p59) p51) (or (not p64) p77 (not p64)) (or (not p37) p33 p51) (or (not p0) (not p39) p10) (or (not p64) (not p47) p35) (or (not p19) (not p17) (not p48)) (or (not p47) p13 (not p70)) (or (not p71) (not p5) (not p41)) (or (not p3) (not p54) p47) (or p53 (not p30) (not p51)) (or p77 p75 (not p77)) (or (not p21) (not p0) (not p34)) (or (not p73) p48 (not p12)) (or (not p39) p32 (not p51)) (or (not p66) p16 p46) (or p16 p61 (not p64)) (or (not p61) p32 p11) (or p7 p20 (not p40)) (or p62 p73 p31) (or (not p53) p21 (not p26)) (or (not p63) (not p1) p64) (or p63 p41 p40) (or (not p29) (not p5) p36) (or (not p57) (not p5) (not p44)) (or p48 (not p63) p7) (or p66 p59 (not p66)) (or (not p21) (not p27) (not p43)) (or (not p69) p76 (not p57)) (or p69 p59 (not p12)) (or (not p42) p32 p33) (or (not p51) p76 (not p62)) (or p19 p7 p10) (or p28 p18 p78) (or (not p69) p45 (not p38)) (or p59 (not p62) p12) (or p46 p33 (not p71)) (or (not p23) (not p19) p24) (or p5 (not p42) (not p70)) (or p66 p78 p60) (or p79 (not p47) (not p44)) (or p11 p51 (not p21)) (or p63 p8 (not p28)) (or p66 p71 p6) (or (not p27) p16 p46) (or (not p76) (not p38) (not p38)) (or p36 (not p77) (not p0)) (or p33 p27 (not p72)) (or p50 p74 p68) (or p0 p51 p58) (or (not p52) p30 (not p28)) (or p22 p70 p73) (or p58 (not p56) (not p42)) (or (not p69) p29 p66) (or p25 (not p18) p8) (or (not p49) (not p50) p22) (or p33 (not p23) (not p24)) (or (not p24) (not p34) (not p6)) (or (not p71) (not p15) (not p20)) (or (not p14) p52 p79) (or (not p57) (not p72) p9) (or (not p60) p25 (not p0)) (or p10 (not p53) (not p75)) (or p13 p10 p69) (or (not p69) (not p72) p14) (or (not p60) p69 p60) (or (not p16) (not p47) p63) (or p73 (not p37) (not p74)) (or p9 p52 p10) (or p54 p40 p18) (or p62 (not p66) p23) (or (not p58) (not p18) p28) (or (not p23) (not p1) p79) (or p14 p14 (not p24)) (or p6 (not p69) (not p62)) (or (not p1) p7 p56) (or (not p13) (not p47) (not p47)) (or p3 p32 p47) (or p46 p72 p29) (or p72 p21 p79) (or (not p19) p54 p39) (or (not p56) (not p57) (not p34)) (or (not p53) p41 (not p33)) (or (not p60) p50 p31) (or (not p58) (not p65) (not p62)) (or p57 p47 (not p29)) (or (not p39) p24 (not p0)) (or (not p0) p56 (not p25)) (or (not p72) (not p79) (not p66)) (or p33 p73 p73) (or p24 p36 p45) (or (not p70) (not p23) (not p34)) (or (not p71) (not p49) p26) (or (not p77) p18 p73) (or p4 p54 p68) (or p53 p43 (not p32)) (or (not p68) p6 (not p64)) (or (not p40) (not p48) (not p40)) (or (not p46) (not p50) p23) (or (not p73) p66 p59) (or p77 p75 (not p78)) (or (not p11) p27 p59) (or p71 (not p21) p46) (or (not p67) (not p53) (not p5)) (or (not p75) (not p54) p48) (or p71 p21 p69) (or p71 p65 p69) (or p71 p41 p47) (or (not p71) (not p41) p1) (or (not p58) p26 p51) (or (not p33) p61 p72) (or p19 p41 p65) (or (not p16) p61 p71) (or (not p18) p60 (not p45)) (or p54 p49 p51) (or (not p43) p74 (not p30)) (or p33 (not p76) p49) (or p41 p37 p47) (or p4 (not p55) p45) (or p38 p20 p73) (or p57 p9 (not p8)) (or (not p22) p34 (not p10)) (or (not p47) p21 p10) (or p76 (not p1) (not p64)) (or p27 p36 p59) (or p21 p17 (not p67)) (or p38 (not p78) p8) (or (not p22) (not p60) p75) (or p46 (not p77) (not p76)) (or (not p28) (not p30) p14) (or (not p74) p16 (not p9)) (or p26 p33 p73) (or (not p38) p66 p31) (or (not p65) p24 p47) (or p79 (not p47) p72) (or p57 p3 p0) (or p72 p27 (not p58)) (or (not p68) (not p2) (not p39)) (or p13 p71 p15) (or (not p47) (not p22) (not p23)) (or (not p4) (not p11) (not p31)) (or p77 p32 p77) (or (not p8) p8 (not p13)) (or (not p31) (not p35) p9) (or (not p21) p42 (not p62)) (or (not p42) (not p41) (not p25)) (or p68 (not p36) (not p61)) (or p63 p58 (not p63)) (or (not p11) (not p22) (not p32)) (or p17 p59 (not p65)) (or (not p13) (not p59) (not p26)) (or (not p79) p32 (not p35)) (or p49 (not p64) (not p53)) (or (not p5) p7 p39) (or p74 p15 (not p71)) (or p25 p78 p21) (or p34 (not p11) (not p6)) (or (not p31) p34 p41) (or p26 p59 (not p19)) (or (not p78) p58 p3) (or p60 p72 p78) (or p3 (not p45) p43) (or p64 p69 p34) (or p21 (not p61) p2) (or p32 p5 (not p74)) (or p37 (not p73) (not p11)) (or (not p48) (not p44) (not p63)) (or p8 p56 p75) (or (not p10) p76 (not p41)) (or p63 (not p66) (not p57)) (or p68 (not p68) p6) (or (not p5) (not p45) (not p27)) (or p50 p64 (not p54)) (or (not p40) p31 (not p74)) (or (not p64) p53 p70) (or (not p22) p47 (not p20)) (or (not p45) (not p26) p58) (or (not p59) (not p76) (not p49)) (or (not p73) (not p59) p28) (or (not p21) p46 (not p1)) (or (not p52) p10 (not p70)) (or (not p75) (not p12) (not p66)) (or (not p78) (not p48) (not p19)) (or (not p55) p26 (not p66)) (or p59 (not p18) p53) (or (not p55) (not p69) p27) (or p69 (not p77) p64) (or (not p43) p9 (not p44)) (or p70 (not p52) p23) (or p55 (not p66) p8) (or (not p78) (not p39) p50) (or (not p71) p63 (not p36)) (or (not p77) p4 (not p18)) (or (not p10) p7 p73) (or p12 p30 (not p31)) (or (not p56) p67 p64) (or p23 p65 p75) (or p33 p77 (not p27)) (or p8 (not p40) (not p33)) (or (not p76) p17 (not p49)) (or (not p60) (not p21) (not p73)) (or (not p36) (not p18) p25) (or (not p24) (not p19) p72) (or p6 (not p40) (not p9)) (or p12 (not p4) p17) (or p24 p35 p22) (or p37 p65 (not p33)) (or p20 p25 (not p13)) (or (not p20) p25 p5) (or (not p35) (not p0) (not p65)) (or p3 (not p52) p76) (or (not p8) p33 (not p47)) (or p9 p68 p64) (or p4 (not p36) p76) (or p66 p18 (not p37)) (or (not p26) (not p44) (not p3)) (or p20 (not p73) (not p36)) (or p27 (not p73) p50) (or (not p58) (not p44) (not p49)))
)
(check-sat)
(get-model)
